p cnf 23 57
a 12 14 0
e 1 2 3 4 5 6 7 8 9 10 11 13 15 16 17 18 19 20 21 22 23 0
-1 -2 -3 0
1 2 -3 0
-1 2 3 0
1 -2 3 0
6 4 0
6 5 0
-4 -5 -6 0
7 -3 0
7 6 0
3 -6 -7 0
-9 1 0
-9 -8 0
-1 8 9 0
7 9 -10 0
-7 -9 -10 0
7 -9 10 0
-7 9 10 0
-13 -11 0
-13 12 0
11 -12 13 0
-14 4 0
-14 4 0
-4 14 0
-2 5 -15 0
2 -5 -15 0
-2 -5 15 0
2 5 15 0
-16 14 0
-16 15 0
-14 -15 16 0
-17 13 0
-17 -16 0
-13 16 17 0
10 17 -18 0
-10 -17 -18 0
10 -17 18 0
-10 17 18 0
19 -5 -20 0
-19 5 -20 0
19 5 20 0
-19 -5 20 0
-21 -4 0
-21 20 0
4 -20 21 0
-21 1 -22 0
21 -1 -22 0
-21 -1 22 0
21 1 22 0
23 -18 0
23 -22 0
18 22 -23 0
1 -18 -6 -4 -22 21 -5 15 0
20 -16 -19 1 0
-14 2 -3 -23 0
-4 6 20 2 8 0
-16 -11 4 12 0
23 0
